data/instances/vrp_files/train_72.vrp
NAME : 72
COMMENT : Generated instance No. 72
TYPE : CVRP
DIMENSION : 21
EDGE_WEIGHT_TYPE : EUC_2D
CAPACITY : 30
NODE_COORD_SECTION
 1 897 809
 2 682 315
 3 133 632
 4 128 578
 5 693 700
 6 753 872
 7 499 730
 8 619 186
 9 25 284
 10 443 617
 11 849 196
 12 125 963
 13 108 478
 14 585 541
 15 86 57
 16 105 585
 17 544 233
 18 637 820
 19 41 498
 20 689 252
 21 307 613
DEMAND_SECTION
1 0
2 4
3 6
4 8
5 7
6 7
7 4
8 9
9 10
10 6
11 3
12 5
13 5
14 5
15 8
16 9
17 9
18 6
19 6
20 9
21 4
DEPOT_SECTION
 1
 -1
EOF